************************************************************************
file with basedata            : mm36_.bas
initial value random generator: 430052473
************************************************************************
projects                      :  1
jobs (incl. supersource/sink ):  12
horizon                       :  76
RESOURCES
  - renewable                 :  2   R
  - nonrenewable              :  2   N
  - doubly constrained        :  0   D
************************************************************************
PROJECT INFORMATION:
pronr.  #jobs rel.date duedate tardcost  MPM-Time
    1     10      0       17        4       17
************************************************************************
PRECEDENCE RELATIONS:
jobnr.    #modes  #successors   successors
   1        1          3           2   3   4
   2        3          3           8   9  11
   3        3          2           6   9
   4        3          3           5   6   7
   5        3          1          11
   6        3          1           8
   7        3          1          10
   8        3          1          10
   9        3          1          12
  10        3          1          12
  11        3          1          12
  12        1          0        
************************************************************************
REQUESTS/DURATIONS:
jobnr. mode duration  R 1  R 2  N 1  N 2
------------------------------------------------------------------------
  1      1     0       0    0    0    0
  2      1     3       5    5    9    0
         2     4       3    4    7    0
         3     4       4    2    8    0
  3      1     1       7    7    9    0
         2     4       4    4    6    0
         3     7       3    1    4    0
  4      1     1       4    9    9    0
         2     1       4    7    0    7
         3     4       3    6    0    4
  5      1     4      10    9    0    8
         2     6       7    7    0    8
         3     8       6    7    9    0
  6      1     6       6    5    6    0
         2     9       4    4    0    6
         3     9       1    3    0    7
  7      1     2       9    2    5    0
         2     2       9    2    0    3
         3     9       7    1    9    0
  8      1     5       4    7    3    0
         2     9       3    5    3    0
         3    10       3    4    3    0
  9      1     1       7    9    5    0
         2     7       5    9    1    0
         3     7       3    9    0    6
 10      1     5       6    8    3    0
         2     7       6    7    2    0
         3     9       6    7    0    8
 11      1     3       8    9    0   10
         2     8       8    9    7    0
         3     9       6    8    7    0
 12      1     0       0    0    0    0
************************************************************************
RESOURCEAVAILABILITIES:
  R 1  R 2  N 1  N 2
   12   12   69   49
************************************************************************
MAXIMAL LAGS:
from  to  type  delay
    1   12   ES      0
    1    2   ES      0
    2   12   ES      0
    1    3   ES      0
    3   12   ES      0
    1    4   ES      0
    4   12   ES      0
    1    5   ES      0
    5   12   ES      0
    1    6   ES      0
    6   12   ES      0
    1    7   ES      0
    7   12   ES      0
    1    8   ES      0
    8   12   ES      0
    1    9   ES      0
    9   12   ES      0
    1   10   ES      0
   10   12   ES      0
    1   11   ES      0
   11   12   ES      0
    1   12   ES      0
    2    8   SS      9
    2    8   SE      3
    2    8   ES     10
    2    8   EE     10
    2    9   SS      2
    2    9   SE      7
    2    9   ES     10
    2    9   EE     -2
    2   11   SS      6
    2   11   SE      6
    2   11   ES     -2
    2   11   EE      7
    3    6   SS     -3
    3    6   SE      1
    3    6   ES     -2
    3    6   EE     -7
    3    9   SS     -9
    3    9   SE      2
    3    9   ES    -11
    3    9   EE      3
    4    5   SS     -5
    4    5   SE    -12
    4    5   ES      8
    4    5   EE     -5
    4    6   SS     10
    4    6   SE     -5
    4    6   ES      2
    4    6   EE      7
    4    7   SS     -6
    4    7   SE     -5
    4    7   ES      3
    4    7   EE     11
    5   11   SS     12
    5   11   SE     -2
    5   11   ES     11
    5   11   EE      0
    6    8   SS     -6
    6    8   SE      0
    6    8   ES     -7
    6    8   EE    -12
    7   10   SS     -1
    7   10   SE    -12
    7   10   ES    -10
    7   10   EE     -1
    8   10   SS    -12
    8   10   SE      5
    8   10   ES     -9
    8   10   EE     -8
************************************************************************
